31 32
40 30
32 22
21 10
13 13
5 25
20 26
17 33
10 17
5 6
30 15
27 23
31 32
21 47
16 57
17 63
5 64
8 52
7 38
12 42
25 32
48 28
45 35
52 41
62 42
61 33
58 27
59 15
46 10
39 10
36 16
51 21
32 39
30 40
30 48
25 55
27 68
31 62
52 64
57 58
56 37
58 48
62 63
63 69
43 67
37 69
42 57
37 52
49 49
42 41
38 46
31 32
